c Choco e747e1e
v <instantiation id='sol1' type='solution' ><list>Andrew[0] Andrew[1] Andrew[2] Andrew[3] PCA[0] PCA[1] PCA[2] PCA[3] PCB[0] PCB[1] PCB[2] PCB[3] PCC[0] PCC[1] PCC[2] PCC[3] PCD[0] PCD[1] PCD[2] PCD[3] processorsSecondaires[0] processorsSecondaires[1] processorsSecondaires[2] processorsSecondaires[3] processorsSecondaires[4] monitorsSecondaires[0] monitorsSecondaires[1] monitorsSecondaires[2] monitorsSecondaires[3] monitorsSecondaires[4] pricesSecondaires[0] pricesSecondaires[1] pricesSecondaires[2] pricesSecondaires[3] pricesSecondaires[4] PROCESSORS[0] PROCESSORS[1] PROCESSORS[2] PROCESSORS[3] PROCESSORS[4] MONITORS[0] MONITORS[1] MONITORS[2] MONITORS[3] MONITORS[4] PRICES[0] PRICES[1] PRICES[2] PRICES[3] PRICES[4] processorsVarDomain[0] processorsVarDomain[1] processorsVarDomain[2] processorsVarDomain[3] processorsVarDomain[4] priceVarDomain[0] priceVarDomain[1] priceVarDomain[2] priceVarDomain[3] priceVarDomain[4] XN[0] ZN[0] aux_gb[0] aux_gb[1] aux_gb[2] aux_gb[3] aux_gb[4] aux_gb[5] aux_gb[6] </list><values>4 3 1 1 3 2 4 0 0 4 2 4 2 0 0 2 1 1 3 3 2 4 3 1 0 3 0 2 4 1 1 0 3 4 2 4 3 0 2 1 1 4 2 0 3 1 0 4 2 3 20 23 25 27 31 699 999 1149 1349 1649 1 4 3 1 27 23 0 699 999 </values></instantiation>

s SATISFIABLE
v <instantiation id='sol1' type='solution' ><list>Andrew[0] Andrew[1] Andrew[2] Andrew[3] PCA[0] PCA[1] PCA[2] PCA[3] PCB[0] PCB[1] PCB[2] PCB[3] PCC[0] PCC[1] PCC[2] PCC[3] PCD[0] PCD[1] PCD[2] PCD[3] processorsSecondaires[0] processorsSecondaires[1] processorsSecondaires[2] processorsSecondaires[3] processorsSecondaires[4] monitorsSecondaires[0] monitorsSecondaires[1] monitorsSecondaires[2] monitorsSecondaires[3] monitorsSecondaires[4] pricesSecondaires[0] pricesSecondaires[1] pricesSecondaires[2] pricesSecondaires[3] pricesSecondaires[4] PROCESSORS[0] PROCESSORS[1] PROCESSORS[2] PROCESSORS[3] PROCESSORS[4] MONITORS[0] MONITORS[1] MONITORS[2] MONITORS[3] MONITORS[4] PRICES[0] PRICES[1] PRICES[2] PRICES[3] PRICES[4] processorsVarDomain[0] processorsVarDomain[1] processorsVarDomain[2] processorsVarDomain[3] processorsVarDomain[4] priceVarDomain[0] priceVarDomain[1] priceVarDomain[2] priceVarDomain[3] priceVarDomain[4] XN[0] ZN[0] aux_gb[0] aux_gb[1] aux_gb[2] aux_gb[3] aux_gb[4] aux_gb[5] aux_gb[6] </list><values>4 3 1 1 3 2 4 0 0 4 2 4 2 0 0 2 1 1 3 3 2 4 3 1 0 3 0 2 4 1 1 0 3 4 2 4 3 0 2 1 1 4 2 0 3 1 0 4 2 3 20 23 25 27 31 699 999 1149 1349 1649 1 4 3 1 27 23 0 699 999 </values></instantiation>
d FOUND SOLUTIONS 1

